results_rootrelaxation/bin018_050_011.srr.sol
solution status: optimal solution found
objective value:                                    0
_var84_                            0.0604053618681318 	(obj:0)
_var350_                            0.260030394601987 	(obj:0)
_var984_                            0.123000550420821 	(obj:0)
_var1559_                          0.0647094823867868 	(obj:0)
_var2691_                          0.0491373391192658 	(obj:0)
_var2705_                           0.346966048689164 	(obj:0)
_var2709_                          0.0500730107267841 	(obj:0)
_var2718_                           0.124535696079138 	(obj:0)
_var2725_                            0.36555998417457 	(obj:0)
_var2740_                           0.332553010366694 	(obj:0)
_var2742_                           0.110241326228533 	(obj:0)
_var2744_                          0.0688984244012918 	(obj:0)
_var2746_                          0.0666829586953256 	(obj:0)
_var2747_                           0.223193726730623 	(obj:0)
_var2749_                           0.187265179322146 	(obj:0)
_var2756_                          0.0973478870171568 	(obj:0)
_var2759_                          0.0425065735640351 	(obj:0)
_var2761_                           0.211522853649416 	(obj:0)
_var2762_                           0.341292877438952 	(obj:0)
_var2765_                          0.0338139635516734 	(obj:0)
_var2768_                           0.165599709117412 	(obj:0)
_var2770_                          0.0210596379652396 	(obj:0)
_var2775_                           0.126626551546262 	(obj:0)
_var2776_                           0.142646421480021 	(obj:0)
_var2780_                           0.110269460545029 	(obj:0)
_var2781_                          0.0782911579724801 	(obj:0)
_var2784_                           0.123596181348164 	(obj:0)
_var2787_                           0.257641012023802 	(obj:0)
_var2788_                           0.201929132955918 	(obj:0)
_var2791_                           0.244521558774202 	(obj:0)
_var2793_                          0.0201781100088771 	(obj:0)
_var2794_                           0.267013039614593 	(obj:0)
_var2795_                           0.126720113659522 	(obj:0)
_var2799_                           0.376356432582153 	(obj:0)
_var2800_                         3.87176124996974e-05 	(obj:0)
_var2802_                           0.297248661685541 	(obj:0)
_var2803_                          0.0660963248469962 	(obj:0)
_var2804_                          0.0598004897482931 	(obj:0)
_var2805_                           0.107013933726909 	(obj:0)
_var2806_                           0.229400212353419 	(obj:0)
_var2811_                           0.226158968900327 	(obj:0)
_var2814_                          0.0273472361780158 	(obj:0)
_var2816_                           0.107734581369647 	(obj:0)
_var2817_                           0.033601507113055 	(obj:0)
_var2818_                           0.192936830984688 	(obj:0)
_var2820_                          0.0630296534408823 	(obj:0)
_var2822_                          0.0741974704621326 	(obj:0)
_var2823_                           0.295456015574657 	(obj:0)
_var2824_                         0.00774234933073255 	(obj:0)
_var2827_                          0.0874220147049906 	(obj:0)
_var2828_                           0.332448352600766 	(obj:0)
_var2831_                          0.0846069437734426 	(obj:0)
_var2834_                           0.252652704324983 	(obj:0)
_var2835_                           0.161407627168471 	(obj:0)
_var2837_                          0.0508013411487437 	(obj:0)
_var2838_                           0.224089270879668 	(obj:0)
_var2839_                         0.00256158142735684 	(obj:0)
_var2843_                           0.243927873467147 	(obj:0)
_var2846_                          0.0904036619819401 	(obj:0)
_var2848_                           0.235479887039246 	(obj:0)
_var2850_                           0.142293815459205 	(obj:0)
_var2851_                          0.0649006984679216 	(obj:0)
_var2852_                           0.123421562953796 	(obj:0)
_var2853_                           0.168569128330475 	(obj:0)
_var2854_                           0.184852489299293 	(obj:0)
_var2857_                           0.118898781109804 	(obj:0)
_var2860_                           0.241663791869432 	(obj:0)
_var2861_                          0.0157773735172265 	(obj:0)
_var2863_                          0.0810777218733726 	(obj:0)
_var2868_                           0.149086950000417 	(obj:0)
_var2869_                           0.136632917589715 	(obj:0)
_var2871_                         0.00164811986876848 	(obj:0)
_var2872_                            0.10918986510711 	(obj:0)
_var2873_                          0.0587556956989993 	(obj:0)
_var2874_                         0.00787546635868307 	(obj:0)
_var2876_                           0.048473836940796 	(obj:0)
_var2880_                           0.122597674445656 	(obj:0)
_var2881_                           0.151931586104694 	(obj:0)
_var2882_                            0.14473130353317 	(obj:0)
_var2883_                          0.0379960110058564 	(obj:0)
_var2884_                           0.144621116031573 	(obj:0)
_var2886_                          0.0198318365599451 	(obj:0)
_var2888_                           0.166267515440372 	(obj:0)
_var2889_                           0.281713846893223 	(obj:0)
_var2890_                         0.000268725178038526 	(obj:0)
_var2891_                           0.039141605273855 	(obj:0)
_var2892_                           0.268239597281386 	(obj:0)
_var2893_                           0.013949480007137 	(obj:0)
_var2895_                          0.0430020813716546 	(obj:0)
_var2897_                         0.000897991100322834 	(obj:0)
_var2900_                           0.249535920783756 	(obj:0)
_var2902_                          0.0939718847342448 	(obj:0)
_var2904_                           0.214314000405519 	(obj:0)
_var2905_                           0.160055654961988 	(obj:0)
_var2907_                           0.169746813306549 	(obj:0)
_var2908_                          0.0990569606047414 	(obj:0)
_var2909_                           0.160081298956746 	(obj:0)
_var2910_                           0.213560077597832 	(obj:0)
_var2911_                          0.0611697302991423 	(obj:0)
_var2912_                          0.0280748415367679 	(obj:0)
_var2914_                          0.0192153420105251 	(obj:0)
_var2915_                          0.0993352759050329 	(obj:0)
_var2916_                          0.0568358681225549 	(obj:0)
_var2919_                          0.0497480462475026 	(obj:0)
_var2920_                          0.0224578890590732 	(obj:0)
_var2923_                          0.0351478750410037 	(obj:0)
_var2924_                           0.108591394800115 	(obj:0)
_var2925_                           0.210170958724841 	(obj:0)
_var2927_                           0.023390932677978 	(obj:0)
_var2928_                           0.121066844957295 	(obj:0)
_var2929_                          0.0771730342613691 	(obj:0)
_var2931_                          0.0528052710062399 	(obj:0)
_var2932_                           0.288753464208108 	(obj:0)
_var2933_                          0.0653046398934286 	(obj:0)
_var2935_                          0.0690334003398657 	(obj:0)
_var2937_                          0.0121133751569135 	(obj:0)
_var2938_                          0.0485861859408013 	(obj:0)
_var2939_                          0.0151908650395647 	(obj:0)
_var2941_                          0.0790731651989673 	(obj:0)
_var2943_                          0.0237854358166364 	(obj:0)
_var2944_                           0.123551103635362 	(obj:0)
_var2945_                            0.01284897644984 	(obj:0)
_var2947_                         0.00268326839473096 	(obj:0)
_var2950_                          0.0878256131911283 	(obj:0)
_var2952_                           0.126146690665882 	(obj:0)
_var2954_                           0.149987879203058 	(obj:0)
_var2955_                          0.0851680497884905 	(obj:0)
_var2958_                           0.125988891544308 	(obj:0)
_var2962_                           0.120370982861858 	(obj:0)
_var2965_                           0.144886194466408 	(obj:0)
_var2967_                          0.0844998620653798 	(obj:0)
_var2968_                           0.150952788905298 	(obj:0)
_var2970_                          0.0376930045017897 	(obj:0)
_var2971_                         0.00762432146068887 	(obj:0)
_var2972_                          0.0205142647317606 	(obj:0)
_var2974_                         0.00185602958843338 	(obj:0)
_var2975_                          0.0718731957007068 	(obj:0)
_var2977_                          0.0958373829081784 	(obj:0)
_var2979_                          0.0119198866808914 	(obj:0)
_var2981_                          0.0702361330093631 	(obj:0)
_var2983_                          0.0667840769975476 	(obj:0)
_var2984_                          0.0364162269632736 	(obj:0)
_var2987_                          0.0663318252886547 	(obj:0)
_var2988_                          0.0461411223454656 	(obj:0)
_var2990_                          0.0211564924691699 	(obj:0)
_var2991_                          0.0095019727532279 	(obj:0)
_var2997_                          0.0182809000326943 	(obj:0)
_var2998_                          0.0513872267534354 	(obj:0)
_var2999_                          0.0809747514053065 	(obj:0)
_var3000_                          0.0519027193456644 	(obj:0)
_var3005_                         0.00384845617002151 	(obj:0)
_var3007_                          0.0233652969842697 	(obj:0)
